 H  C                                   
   1.00000000000000     
    10.1375864224327401    0.0000000000000000    0.0000000000000000
    -0.2266533593813996    9.9663513300676279    0.0000000000000000
    -0.1377447509943128   -0.2229895137746805    9.8041266979443353
   H    C 
     4     1
Direct
  0.5375146538946788  0.4055352516959510  0.3578471885371454
  0.3975087365637784  0.4786876486125175  0.4378867604239091
  0.5529109804039600  0.5669181362875192  0.4438680926666850
  0.5287465774254860  0.4164266486110013  0.5414085334815820
  0.5031448987720664  0.4671992452905668  0.4453946603910123
 
 -0.44614452E-02 -0.74560824E-03 -0.40632709E-02
  0.16633862E-02 -0.30465920E-02 -0.11866394E-02
  0.12217268E-02  0.98244532E-03  0.43615633E-02
 -0.71770649E-03  0.37181512E-02  0.43198845E-02
  0.19099481E-03 -0.75630363E-04 -0.28569956E-03
 
           1
  0.500000000000000     
  0.10000000E+01  0.00000000E+00  0.00000000E+00  0.00000000E+00
  0.53729085E+00  0.40549321E+00  0.35763997E+00
  0.39758651E+00  0.47853345E+00  0.43782624E+00
  0.55297547E+00  0.56697240E+00  0.44409053E+00
  0.52871845E+00  0.41661811E+00  0.54162884E+00
  0.50315403E+00  0.46719513E+00  0.44538009E+00
 -0.20654796E-03 -0.67352595E-04 -0.24185769E-03
  0.13814538E-03 -0.15848053E-03 -0.56005459E-04
  0.76966490E-04  0.82068584E-04  0.21766675E-03
 -0.17176822E-04  0.16618377E-03  0.25840118E-03
  0.71708460E-06 -0.18665578E-05 -0.14836798E-04
  0.00000000E+00  0.00000000E+00  0.00000000E+00
  0.00000000E+00  0.00000000E+00  0.00000000E+00
  0.00000000E+00  0.00000000E+00  0.00000000E+00
  0.00000000E+00  0.00000000E+00  0.00000000E+00
  0.00000000E+00  0.00000000E+00  0.00000000E+00
