 H  C                                   
   1.00000000000000     
     9.8309615035502578    0.0000000000000000    0.0000000000000000
     0.2934723250206953    9.7370728222408705    0.0000000000000000
    -0.2035333707072502   -0.1571228359711577   10.1545702220593999
   H    C 
     4     1
Direct
  0.5383613406559316  0.4049686246731825  0.3617877146762329
  0.3894097418844590  0.4824144876182876  0.4378456390467167
  0.5519663202327166  0.5690482257014439  0.4436451836715618
  0.5295853240776037  0.4164114586348197  0.5375012196652669
  0.5031605232943477  0.4675727434952271  0.4458494363248590
 
  0.80404708E-03 -0.66055440E-02  0.39927869E-02
 -0.31848501E-02  0.58072270E-02 -0.12721188E-02
 -0.31058092E-02  0.44533079E-02  0.49817521E-02
  0.53077811E-02 -0.11692740E-02 -0.31388275E-02
  0.14888952E-04 -0.20695337E-03 -0.37995109E-03
 
           1
  0.500000000000000     
  0.10000000E+01  0.00000000E+00  0.00000000E+00  0.00000000E+00
  0.53841634E+00  0.40463260E+00  0.36198432E+00
  0.38923759E+00  0.48271168E+00  0.43778300E+00
  0.55180649E+00  0.56928086E+00  0.44389048E+00
  0.52985394E+00  0.41634892E+00  0.53734667E+00
  0.50316122E+00  0.46756181E+00  0.44583073E+00
  0.54799049E-04 -0.33171502E-03  0.19414067E-03
 -0.27256777E-03  0.30446065E-03 -0.69509603E-04
 -0.12939958E-03  0.28286317E-03  0.23990769E-03
  0.25560354E-03 -0.43681271E-04 -0.18770405E-03
  0.76234086E-05 -0.17644453E-04 -0.14722729E-04
  0.00000000E+00  0.00000000E+00  0.00000000E+00
  0.00000000E+00  0.00000000E+00  0.00000000E+00
  0.00000000E+00  0.00000000E+00  0.00000000E+00
  0.00000000E+00  0.00000000E+00  0.00000000E+00
  0.00000000E+00  0.00000000E+00  0.00000000E+00
