 H  C                                   
   1.00000000000000     
     9.9900385079060126    0.0000000000000000    0.0000000000000000
     0.0144361026578119   10.1909393202532659    0.0000000000000000
    -0.2155730448022864   -0.2832227815708210   10.1476999619933750
   H    C 
     4     1
Direct
  0.5373824412525787  0.4075394669941729  0.3618631716741628
  0.3940378780343416  0.4805120796436038  0.4376154170022818
  0.5513772626748780  0.5622120808982944  0.4446667728450839
  0.5282713978934437  0.4188363099556756  0.5357694803410082
  0.5036456092284604  0.4674684936714409  0.4452816369329090
 
 -0.27392414E-02  0.88430989E-03  0.43613808E-03
 -0.24898988E-03 -0.10033790E-02 -0.35481322E-02
  0.93893687E-03 -0.43558212E-02  0.43245274E-02
  0.37188002E-02  0.53345180E-02 -0.15678465E-02
 -0.13899807E-03 -0.71570037E-04  0.29582324E-04
 
           1
  0.500000000000000     
  0.10000000E+01  0.00000000E+00  0.00000000E+00  0.00000000E+00
  0.53724574E+00  0.40758345E+00  0.36188466E+00
  0.39402172E+00  0.48045799E+00  0.43744059E+00
  0.55142915E+00  0.56200429E+00  0.44487985E+00
  0.52845548E+00  0.41909589E+00  0.53569223E+00
  0.50363869E+00  0.46746502E+00  0.44528309E+00
 -0.14366127E-03  0.60865790E-04  0.46063244E-04
 -0.41305346E-04 -0.50054992E-04 -0.17338808E-03
  0.15802497E-04 -0.27598953E-03  0.21067437E-03
  0.16523154E-03  0.28837813E-03 -0.13674965E-03
  0.32741511E-06 -0.19315124E-05  0.44459334E-05
  0.00000000E+00  0.00000000E+00  0.00000000E+00
  0.00000000E+00  0.00000000E+00  0.00000000E+00
  0.00000000E+00  0.00000000E+00  0.00000000E+00
  0.00000000E+00  0.00000000E+00  0.00000000E+00
  0.00000000E+00  0.00000000E+00  0.00000000E+00
