 H  C 
 1.0000000000000000
     9.9900385079060126    0.0000000000000000    0.0000000000000000
     0.0144361026578119   10.1909393202532659    0.0000000000000000
    -0.2155730448022864   -0.2832227815708210   10.1476999619933750
 H   C  
   4   1
Cartesian
  5.3074512344150317  4.0418471144919765  3.6614640571887258
  3.8599894463434787  4.7743264888406509  4.4511318543434859
  5.4308051922280951  5.6423574533485930  4.4999593318065383
  5.1629535110413505  4.0888063530410443  5.4638030159785833
  4.9399269846479994  4.6375322718351830  4.5173925022828501
