H4 C1                                   
   1.00000000000000     
    10.0000000000000000    0.0000000000000000    0.0000000000000000
     0.0000000000000000   10.0000000000000000    0.0000000000000000
     0.0000000000000000    0.0000000000000000   10.0000000000000000
   H    C 
     4     1
Direct
  0.5381539999999987  0.4068609999999993  0.3605730000000023
  0.3945399999999992  0.4803210000000036  0.4384689999999978
  0.5520920000000018  0.5654499999999985  0.4427090000000007
  0.5281850000000006  0.4164150000000006  0.5391830000000013
  0.5032509999999988  0.4672550000000015  0.4452319999999972
 
  0.00000000E+00  0.00000000E+00  0.00000000E+00
  0.00000000E+00  0.00000000E+00  0.00000000E+00
  0.00000000E+00  0.00000000E+00  0.00000000E+00
  0.00000000E+00  0.00000000E+00  0.00000000E+00
  0.00000000E+00  0.00000000E+00  0.00000000E+00
