 H  C 
 1.0000000000000000
    10.1375864224327401    0.0000000000000000    0.0000000000000000
    -0.2266533593813996    9.9663513300676279    0.0000000000000000
    -0.1377447509943128   -0.2229895137746805    9.8041266979443353
 H   C  
   4   1
Cartesian
  5.3143568270946924  3.9739087928040697  3.5343355248678332
  3.8326782082085988  4.6841494442888800  4.2950125802635606
  5.4072076326467275  5.5372708057383013  4.3401032826762984
  5.1891511608811021  4.0283401901870732  5.2799563496455431
  4.9361183951797765  4.5562890706812365  4.3676919096266440
