 H  C                                   
   1.00000000000000     
    10.1434092648324601    0.0000000000000000    0.0000000000000000
     0.2285851411502989   10.2514472522486511    0.0000000000000000
    -0.0022335993785537    0.1595298852656790    9.9276014719056036
   H    C 
     4     1
Direct
  0.5380817645783662  0.4079045836695046  0.3603309801328954
  0.3964855439970379  0.4804892840821869  0.4385319754061101
  0.5486386901208720  0.5595782883368159  0.4421143172036571
  0.5286731582810377  0.4163141087570547  0.5401752678080252
  0.5029889852493726  0.4673055655190103  0.4449938548375134
 
  0.75697083E-03  0.35906499E-02 -0.18359599E-02
  0.21549702E-02  0.69513048E-03  0.48636649E-03
 -0.28427269E-02 -0.51885523E-02 -0.32394799E-02
 -0.19333098E-02  0.59256181E-03  0.91336186E-03
  0.15519904E-03  0.25827168E-04  0.30602876E-03
 
           1
  0.500000000000000     
  0.10000000E+01  0.00000000E+00  0.00000000E+00  0.00000000E+00
  0.53811508E+00  0.40808115E+00  0.36023851E+00
  0.39659102E+00  0.48052281E+00  0.43855647E+00
  0.54850417E+00  0.55932776E+00  0.44195116E+00
  0.52857723E+00  0.41634229E+00  0.54022127E+00
  0.50299662E+00  0.46730659E+00  0.44500927E+00
  0.37778885E-04  0.16797579E-03 -0.10111397E-03
  0.14244261E-03  0.29971599E-04  0.27096121E-04
 -0.19712684E-03 -0.37689571E-03 -0.15569920E-03
 -0.90732938E-04  0.23274424E-04  0.57586685E-04
  0.89616423E-05  0.12960944E-04  0.14331060E-04
  0.00000000E+00  0.00000000E+00  0.00000000E+00
  0.00000000E+00  0.00000000E+00  0.00000000E+00
  0.00000000E+00  0.00000000E+00  0.00000000E+00
  0.00000000E+00  0.00000000E+00  0.00000000E+00
  0.00000000E+00  0.00000000E+00  0.00000000E+00
