 H  C                                   
   1.00000000000000     
    10.2533830576879001    0.0000000000000000    0.0000000000000000
    -0.1361752086172637    9.9565966905644991    0.0000000000000000
     0.0661282242603108    0.1861296052545111    9.7243362600656003
   H    C 
     4     1
Direct
  0.5374726886883255  0.4069980396813294  0.3578612870576874
  0.4001246020303293  0.4796878632994775  0.4391547830847074
  0.5523931479850406  0.5660920860699684  0.4418252955756011
  0.5283398213324078  0.4136846607303141  0.5440093782939917
  0.5029961914061140  0.4673939761289738  0.4450252848550799
 
 -0.19381623E-02  0.17007679E-02 -0.39583213E-02
  0.42705445E-02 -0.15693242E-02  0.87823318E-03
 -0.10292118E-02  0.94509071E-03 -0.20544448E-02
 -0.35491087E-02 -0.68783755E-03  0.49883436E-02
  0.18699011E-03 -0.32361742E-04  0.12171282E-04
 
           1
  0.500000000000000     
  0.10000000E+01  0.00000000E+00  0.00000000E+00  0.00000000E+00
  0.53738067E+00  0.40708725E+00  0.35765776E+00
  0.40033150E+00  0.47960821E+00  0.43919994E+00
  0.55234430E+00  0.56614152E+00  0.44171966E+00
  0.52816457E+00  0.41364532E+00  0.54426587E+00
  0.50300528E+00  0.46739234E+00  0.44502591E+00
 -0.79410317E-04  0.66634706E-04 -0.23312581E-03
  0.33375279E-03 -0.93256009E-04  0.51096531E-04
 -0.45385375E-04  0.57775612E-04 -0.10512079E-03
 -0.15010443E-03 -0.88539088E-04  0.34515527E-03
 -0.48998977E-05  0.47776854E-05 -0.48293389E-05
  0.00000000E+00  0.00000000E+00  0.00000000E+00
  0.00000000E+00  0.00000000E+00  0.00000000E+00
  0.00000000E+00  0.00000000E+00  0.00000000E+00
  0.00000000E+00  0.00000000E+00  0.00000000E+00
  0.00000000E+00  0.00000000E+00  0.00000000E+00
