 H  C                                   
   1.00000000000000     
    10.1391934429084394    0.0000000000000000    0.0000000000000000
    -0.0557657558147619    9.8476603586190716    0.0000000000000000
     0.0507215633380516   -0.2672690644988246   10.2119103421598929
   H    C 
     4     1
Direct
  0.5383460053952762  0.4047578747864379  0.3605991288201334
  0.3984078363019949  0.4800074070036413  0.4389799081923407
  0.5527645263223460  0.5679422616205620  0.4436729456377073
  0.5271650763694581  0.4177848349132816  0.5352938563745722
  0.5034643654886530  0.4671285594868459  0.4457127807976944
 
  0.37769235E-03 -0.51163790E-02  0.21118976E-02
  0.31811384E-02  0.10317027E-02  0.10482321E-02
 -0.13243241E-02  0.21115927E-02  0.39140170E-02
  0.11949012E-02  0.55690824E-03 -0.40132139E-02
 -0.28552225E-03  0.11790653E-03 -0.25484412E-03
 
           1
  0.500000000000000     
  0.10000000E+01  0.00000000E+00  0.00000000E+00  0.00000000E+00
  0.53836270E+00  0.40450090E+00  0.36070253E+00
  0.39856475E+00  0.48006118E+00  0.43903123E+00
  0.55269888E+00  0.56805468E+00  0.44386459E+00
  0.52722511E+00  0.41780778E+00  0.53509736E+00
  0.50345038E+00  0.46713421E+00  0.44570030E+00
  0.28687917E-04 -0.27864519E-03  0.67731282E-04
  0.23989315E-03  0.41917065E-04  0.56623803E-04
 -0.45177839E-04  0.15406973E-03  0.18839685E-03
  0.38136061E-04  0.61950207E-04 -0.26482937E-03
 -0.21774981E-04  0.17241013E-05 -0.39898904E-05
  0.00000000E+00  0.00000000E+00  0.00000000E+00
  0.00000000E+00  0.00000000E+00  0.00000000E+00
  0.00000000E+00  0.00000000E+00  0.00000000E+00
  0.00000000E+00  0.00000000E+00  0.00000000E+00
  0.00000000E+00  0.00000000E+00  0.00000000E+00
