 H  C 
 1.0000000000000000
     9.9225175924645299    0.0000000000000000    0.0000000000000000
    -0.2440587833687403    9.8671709878398008    0.0000000000000000
    -0.2365936513157017    0.0026954315658089   10.0029784953945420
 H   C  
   4   1
Cartesian
  5.1547472889737103  4.0132712979848009  3.6097599589879819
  3.6939447040845050  4.7406329807843646  4.3860751678282037
  5.2365010959354592  5.5797850715460191  4.4295286973112447
  5.0093709956740131  4.1099400475953978  5.3937254201877476
  4.7822950270114042  4.6143931892487995  4.4573802675625549
