 H  C                                   
   1.00000000000000     
     9.9876004297253402    0.0000000000000000    0.0000000000000000
     0.1953160614220962   10.0818764144347863    0.0000000000000000
    -0.1134144981898158   -0.2447280073075527   10.0739554805424376
   H    C 
     4     1
Direct
  0.5380616095071895  0.4062080275384910  0.3606404844107436
  0.3938223974694656  0.4809505696189558  0.4380555517584141
  0.5504404527975428  0.5624445007115109  0.4439859132272083
  0.5284130815530819  0.4177399237105636  0.5367772423401095
  0.5033620841958169  0.4672788450088045  0.4452782366215519
 
 -0.50057659E-03 -0.96233733E-03  0.13669668E-02
  0.25617937E-03  0.22991934E-02 -0.17862273E-02
 -0.20495955E-02 -0.27330875E-02  0.36029046E-02
  0.35763229E-02  0.29876156E-02 -0.20456998E-02
 -0.10676298E-03 -0.13249389E-03 -0.94741842E-04
 
           1
  0.500000000000000     
  0.10000000E+01  0.00000000E+00  0.00000000E+00  0.00000000E+00
  0.53803822E+00  0.40616195E+00  0.36070833E+00
  0.39383203E+00  0.48106244E+00  0.43796690E+00
  0.55034244E+00  0.56231330E+00  0.44416474E+00
  0.52858812E+00  0.41788563E+00  0.53667571E+00
  0.50335682E+00  0.46727216E+00  0.44527353E+00
 -0.25113705E-04 -0.40537484E-04  0.73561203E-04
 -0.75476045E-05  0.11251490E-03 -0.88226534E-04
 -0.13222915E-03 -0.20235169E-03  0.17722780E-03
  0.16033855E-03  0.16834596E-03 -0.14562138E-03
  0.37897812E-06 -0.31614084E-05 -0.14104648E-05
  0.00000000E+00  0.00000000E+00  0.00000000E+00
  0.00000000E+00  0.00000000E+00  0.00000000E+00
  0.00000000E+00  0.00000000E+00  0.00000000E+00
  0.00000000E+00  0.00000000E+00  0.00000000E+00
  0.00000000E+00  0.00000000E+00  0.00000000E+00
