 H  C 
 1.0000000000000000
    10.1434092648324601    0.0000000000000000    0.0000000000000000
     0.2285851411502989   10.2514472522486511    0.0000000000000000
    -0.0022335993785537    0.1595298852656790    9.9276014719056036
 H   C  
   4   1
Cartesian
  5.5463210201426785  4.2316696379586647  3.5865478536219788
  4.1100320277972919  4.9948164851690757  4.3511793531176979
  5.7242810012373218  5.8688584332666691  4.3964845430703923
  5.4603728933279587  4.3541421389087205  5.3550941757806587
  5.2068888911961855  4.8570766624495807  4.4171610502943501
