 H  C                                   
   1.00000000000000     
     9.7034093436563786    0.0000000000000000    0.0000000000000000
     0.0213770352494113   10.2647894298314899    0.0000000000000000
    -0.0178999400007382   -0.0526122366732251    9.9745631185653103
   H    C 
     4     1
Direct
  0.5387314889344257  0.4077669119358092  0.3604243729006790
  0.3882316320269592  0.4801406104806866  0.4381178271325566
  0.5521624656737815  0.5617416173620444  0.4428354544782731
  0.5283904615701752  0.4175758789183266  0.5388958460285567
  0.5036099819462955  0.4672489772412654  0.4451898078331171
 
  0.17813109E-02  0.31615916E-02 -0.13321575E-02
 -0.43552765E-02 -0.27511536E-03 -0.89439292E-03
  0.34825710E-02 -0.44419783E-02  0.12294107E-02
  0.28633756E-02  0.41395225E-02  0.10985658E-02
 -0.31404387E-03 -0.21513783E-03 -0.84444367E-05
 
           1
  0.500000000000000     
  0.10000000E+01  0.00000000E+00  0.00000000E+00  0.00000000E+00
  0.53882282E+00  0.40792057E+00  0.36035760E+00
  0.38800716E+00  0.48012698E+00  0.43807299E+00
  0.55234251E+00  0.56152556E+00  0.44289708E+00
  0.52853766E+00  0.41777780E+00  0.53895091E+00
  0.50359382E+00  0.46723850E+00  0.44518938E+00
  0.88365371E-04  0.15575385E-03 -0.59001925E-04
 -0.33799042E-03 -0.31066582E-06 -0.51242344E-04
  0.14666894E-03 -0.27462545E-03  0.62259541E-04
  0.14271296E-03  0.20530050E-03  0.41669401E-04
 -0.33100374E-05 -0.71699468E-05  0.52579537E-06
  0.00000000E+00  0.00000000E+00  0.00000000E+00
  0.00000000E+00  0.00000000E+00  0.00000000E+00
  0.00000000E+00  0.00000000E+00  0.00000000E+00
  0.00000000E+00  0.00000000E+00  0.00000000E+00
  0.00000000E+00  0.00000000E+00  0.00000000E+00
