 H  C 
 1.0000000000000000
    10.1868960497004402    0.0000000000000000    0.0000000000000000
     0.1914426637364506   10.1660522014819072    0.0000000000000000
    -0.2719757199695298   -0.2780056789273053    9.8804844536831453
 H   C  
   4   1
Cartesian
  5.4671688120399793  4.0390935517223552  3.5598785866650116
  3.9956841501740485  4.7664975337353068  4.3281338438893533
  5.6081788015977718  5.6281786975720935  4.3725536798809772
  5.3157212522770214  4.0878800513087512  5.3344968374694313
  5.0903844031357579  4.6188743385569495  4.4039151677219257
