 H  C 
 1.0000000000000000
     9.8309615035502578    0.0000000000000000    0.0000000000000000
     0.2934723250206953    9.7370728222408705    0.0000000000000000
    -0.2035333707072502   -0.1571228359711577   10.1545702220593999
 H   C  
   4   1
Cartesian
  5.3353605896367817  3.9049558187370006  3.6622294681460454
  3.9305746735380072  4.6077622111503906  4.4527765742567524
  5.5001494186130087  5.4381891776023368  4.4917953692539028
  5.2072073590479722  3.9664365785650624  5.4807208710703428
  4.9903171193205402  4.4859722380072595  4.5270373182400245
