 H  C                                   
   1.00000000000000     
    10.1988754905668220    0.0000000000000000    0.0000000000000000
    -0.1533042403466177    9.9985996102522545    0.0000000000000000
    -0.2669691580985993   -0.2019653075397611   10.0745562604143135
   H    C 
     4     1
Direct
  0.5360184737619297  0.4068860223907526  0.3613240048940837
  0.3979605220309816  0.4796909254860115  0.4374602127680760
  0.5521456620728074  0.5660295779927473  0.4436427847287786
  0.5280527191898928  0.4182399533768802  0.5371539999374395
  0.5029545394863160  0.4673169309568558  0.4452145179981914
 
 -0.56327571E-02 -0.31073539E-02  0.10223025E-02
  0.30057174E-02 -0.12456684E-02 -0.35439448E-02
 -0.14549670E-02  0.88277301E-03  0.53297523E-02
  0.19397356E-02  0.26614601E-02 -0.18201084E-02
  0.17835910E-03  0.67337372E-04 -0.82258067E-04
 
           1
  0.500000000000000     
  0.10000000E+01  0.00000000E+00  0.00000000E+00  0.00000000E+00
  0.53574134E+00  0.40673166E+00  0.36137474E+00
  0.39810228E+00  0.47962508E+00  0.43728433E+00
  0.55208200E+00  0.56607907E+00  0.44390730E+00
  0.52814742E+00  0.41837122E+00  0.53706367E+00
  0.50296323E+00  0.46732022E+00  0.44521044E+00
 -0.27790415E-03 -0.14342579E-03  0.62518097E-04
  0.20477523E-03 -0.72758786E-04 -0.16819265E-03
 -0.56627061E-04  0.61131701E-04  0.26033467E-03
  0.80290020E-04  0.15384373E-03 -0.13563651E-03
  0.41183878E-05  0.10066916E-06 -0.15838487E-05
  0.00000000E+00  0.00000000E+00  0.00000000E+00
  0.00000000E+00  0.00000000E+00  0.00000000E+00
  0.00000000E+00  0.00000000E+00  0.00000000E+00
  0.00000000E+00  0.00000000E+00  0.00000000E+00
  0.00000000E+00  0.00000000E+00  0.00000000E+00
