 H  C                                   
   1.00000000000000     
    10.0614773722562401    0.0000000000000000    0.0000000000000000
     0.2847283816524605    9.7788542930909834    0.0000000000000000
     0.0228752360278347   -0.2957801547601813   10.2406810126291123
   H    C 
     4     1
Direct
  0.5392787958000979  0.4035802131782285  0.3598439428881728
  0.3943073980241394  0.4814637242506952  0.4383073672613627
  0.5500492798675919  0.5657345129220291  0.4439473662207859
  0.5275640323314362  0.4169722202530184  0.5344556923400308
  0.5029560216713350  0.4668847809013286  0.4452907551460941
 
  0.15404993E-02 -0.76302117E-02  0.36463032E-02
  0.36209889E-03  0.48749067E-02  0.61874951E-03
 -0.59068620E-02  0.19816463E-02  0.28108446E-02
  0.20204226E-02 -0.27133325E-02 -0.61451534E-02
  0.16516870E-03  0.29031647E-03 -0.77490956E-04
 
           1
  0.500000000000000     
  0.10000000E+01  0.00000000E+00  0.00000000E+00  0.00000000E+00
  0.53936583E+00  0.40319546E+00  0.36002197E+00
  0.39431824E+00  0.48171390E+00  0.43833758E+00
  0.54975244E+00  0.56583999E+00  0.44408461E+00
  0.52766930E+00  0.41682441E+00  0.53415566E+00
  0.50296382E+00  0.46689951E+00  0.44528697E+00
  0.10554419E-03 -0.41117754E-03  0.13134012E-03
 -0.46432865E-05  0.24941056E-03  0.29975556E-04
 -0.30515197E-03  0.76048963E-04  0.13683429E-03
  0.82415003E-04 -0.99799565E-04 -0.37370530E-03
  0.10143707E-04  0.15445640E-04  0.62905111E-05
  0.00000000E+00  0.00000000E+00  0.00000000E+00
  0.00000000E+00  0.00000000E+00  0.00000000E+00
  0.00000000E+00  0.00000000E+00  0.00000000E+00
  0.00000000E+00  0.00000000E+00  0.00000000E+00
  0.00000000E+00  0.00000000E+00  0.00000000E+00
