 H  C 
 1.0000000000000000
    10.0614773722562401    0.0000000000000000    0.0000000000000000
     0.2847283816524605    9.7788542930909834    0.0000000000000000
     0.0228752360278347   -0.2957801547601813   10.2406810126291123
 H   C  
   4   1
Cartesian
  5.5372097380458403  3.8734593244518525  3.6930187384366522
  4.1194731656131864  4.5638665028795504  4.4866561692333411
  5.7272032245521958  5.4056987845975364  4.5377437829846805
  5.4408235051375398  3.9097550896353046  5.5198216898366397
  5.2022174975462692  4.4327421642090030  4.5564077989630629
