 H  C 
 1.0000000000000000
    10.2494343501984471    0.0000000000000000    0.0000000000000000
     0.0121235226814411    9.7695051597154148    0.0000000000000000
    -0.0189004091102008    0.1236853094165362   10.1894452053503741
 H   C  
   4   1
Cartesian
  5.5188140545009254  4.0201597838331198  3.6777237816940516
  4.0388477015734523  4.7538220624400491  4.4626693395948074
  5.6574753947436749  5.5785946115538829  4.5066209365135599
  5.4106317513944395  4.1320072540313655  5.4904437981442955
  5.1557077203655934  4.6211403203492534  4.5379997633630973
