 H  C 
 1.0000000000000000
     9.9920564926278370    0.0000000000000000    0.0000000000000000
    -0.2159346037444984   10.2014137980240669    0.0000000000000000
     0.1592047532086768    0.0700761303304075   10.1579514828675652
 H   C  
   4   1
Cartesian
  5.3461335238643874  4.1750798051006743  3.6627254510558616
  3.9062042855728225  4.9304403277526125  4.4589077150811853
  5.4647104971243543  5.7989747124342994  4.4968344595684853
  5.2798219365153418  4.2790671253768311  5.4762430063016057
  4.9984388911467139  4.7975838005016707  4.5224722313153087
