 H  C 
 1.0000000000000000
    10.1545030587003637    0.0000000000000000    0.0000000000000000
     0.1968288216608930   10.0909811562999927    0.0000000000000000
    -0.2846758370029758    0.0303185142893556    9.9624153400275706
 H   C  
   4   1
Cartesian
  5.4364465482526834  4.1135659169166114  3.5926622383864415
  3.9693288805242974  4.8548889647208062  4.3666527701286757
  5.5954733219604247  5.7196161419508824  4.4124527705332470
  5.2906718607267260  4.2146991536585876  5.3668916920355665
  5.0767168090147097  4.7297990509848642  4.4353028598770479
