 H  C                                   
   1.00000000000000     
     9.9225175924645299    0.0000000000000000    0.0000000000000000
    -0.2440587833687403    9.8671709878398008    0.0000000000000000
    -0.2365936513157017    0.0026954315658089   10.0029784953945420
   H    C 
     4     1
Direct
  0.5371653582415966  0.4069695640038670  0.3617696421947182
  0.3944311358111623  0.4796602607594393  0.4376099050906669
  0.5553380082687330  0.5701699959603764  0.4433068200254090
  0.5291494366280131  0.4158104474798950  0.5406474400082072
  0.5038155743737276  0.4672041810375699  0.4454424971937127
 
 -0.19082372E-02 -0.75131193E-03  0.32404144E-03
 -0.67450227E-03 -0.20921934E-02 -0.30539493E-02
  0.39613478E-02  0.25803884E-02  0.21971834E-02
  0.33980715E-02  0.37853803E-03  0.11574334E-02
 -0.39769210E-03 -0.96096112E-05 -0.52011402E-04
 
           1
  0.500000000000000     
  0.10000000E+01  0.00000000E+00  0.00000000E+00  0.00000000E+00
  0.53706865E+00  0.40693149E+00  0.36178584E+00
  0.39439090E+00  0.47955428E+00  0.43745725E+00
  0.55554346E+00  0.57030072E+00  0.44341665E+00
  0.52932252E+00  0.41582961E+00  0.54070529E+00
  0.50379546E+00  0.46720369E+00  0.44543990E+00
 -0.10555844E-03 -0.23422524E-04  0.36548211E-04
 -0.37520055E-04 -0.10609048E-03 -0.15077426E-03
  0.25095063E-03  0.22826576E-03  0.10529518E-03
  0.17659089E-03  0.14283857E-05  0.86029565E-04
 -0.23683542E-04 -0.83407823E-05 -0.64190071E-05
  0.00000000E+00  0.00000000E+00  0.00000000E+00
  0.00000000E+00  0.00000000E+00  0.00000000E+00
  0.00000000E+00  0.00000000E+00  0.00000000E+00
  0.00000000E+00  0.00000000E+00  0.00000000E+00
  0.00000000E+00  0.00000000E+00  0.00000000E+00
