 H  C 
 1.0000000000000000
     9.7192446952740514    0.0000000000000000    0.0000000000000000
     0.1045081736569694   10.2049635633611544    0.0000000000000000
    -0.2176338731266887   -0.2097554413208116    9.6998477926787956
 H   C  
   4   1
Cartesian
  5.1931173533524619  4.0763792458149730  3.4970023071874188
  3.7912771219860653  4.8091053565674873  4.2557651348614511
  5.3299389046275589  5.6739644534835216  4.2870043153419761
  5.0558435698878235  4.1436539898913596  5.2271538130352093
  4.8437051148017840  4.6749725947533474  4.3191223169160926
