 H  C 
 1.0000000000000000
    10.1785761270974184    0.0000000000000000    0.0000000000000000
     0.1178281122990178   10.0898560495437373    0.0000000000000000
     0.2060917341755417    0.0716358198246718    9.9945987648991803
 H   C  
   4   1
Cartesian
  5.6041647686614100  4.1361555508806402  3.6006743725900692
  4.1659076781831859  4.8847755901934526  4.3859657136796688
  5.7781382250218751  5.7369778268881770  4.4244878121912565
  5.5401728813928157  4.2392554116334162  5.3858881016132658
  5.2699751104697530  4.7455609354840806  4.4510194958329565
