H4 C1                                   
   1.00000000000000     
    10.0000000000000000    0.0000000000000000    0.0000000000000000
     0.0000000000000000   10.0000000000000000    0.0000000000000000
     0.0000000000000000    0.0000000000000000   10.0000000000000000
   H    C 
     4     1
Direct
  0.5381597169565994  0.4068565946733099  0.3605698795384830
  0.3945448209842526  0.4803170126304139  0.4384675786427416
  0.5520944980146270  0.5654453504875728  0.4427081043267728
  0.5281910162228756  0.4164101344757447  0.5391840109878645
  0.5032494137725111  0.4672564909443825  0.4452323685375161
 
  0.15004695E-04 -0.38367358E-05  0.63912675E-05
  0.31219356E-06 -0.14228741E-04 -0.65912119E-05
  0.14068888E-04 -0.91159428E-05 -0.36548100E-05
  0.20181230E-04 -0.11970324E-04 -0.96094157E-05
 -0.41268010E-05  0.32596573E-05  0.11209866E-05
 
           1
  0.500000000000000     
  0.10000000E+01  0.00000000E+00  0.00000000E+00  0.00000000E+00
  0.53816047E+00  0.40685640E+00  0.36057020E+00
  0.39454484E+00  0.48031630E+00  0.43846725E+00
  0.55209520E+00  0.56544489E+00  0.44270792E+00
  0.52819203E+00  0.41640954E+00  0.53918353E+00
  0.50324921E+00  0.46725665E+00  0.44523242E+00
  0.77716199E-06 -0.27480902E-06  0.19009819E-06
  0.13558798E-06 -0.69957812E-06 -0.31357063E-06
  0.65652194E-06 -0.50523491E-06 -0.17654738E-06
  0.10025237E-05 -0.62758354E-06 -0.37946015E-06
 -0.21412002E-06  0.17543965E-06  0.56571474E-07
  0.00000000E+00  0.00000000E+00  0.00000000E+00
  0.00000000E+00  0.00000000E+00  0.00000000E+00
  0.00000000E+00  0.00000000E+00  0.00000000E+00
  0.00000000E+00  0.00000000E+00  0.00000000E+00
  0.00000000E+00  0.00000000E+00  0.00000000E+00
