 H  C 
 1.0000000000000000
    10.2714960859413402    0.0000000000000000    0.0000000000000000
    -0.0527190557880029    9.7703139767603417    0.0000000000000000
    -0.0695629515756680    0.2010164847261474   10.2907087011159728
 H   C  
   4   1
Cartesian
  5.4813102842780088  4.0475663541804989  3.7108389577438397
  3.9895180459983073  4.7780367058103712  4.5152643477994943
  5.6162461773624779  5.6135040217827674  4.5529933748463156
  5.3651641659482658  4.1789104723560326  5.5526461054232490
  5.1073640350594278  4.6510011204633281  4.5837186769827092
