 H  C                                   
   1.00000000000000     
     9.7686212013746427    0.0000000000000000    0.0000000000000000
    -0.0172867116894793    9.9441395391845830    0.0000000000000000
    -0.0461728031314096   -0.0136142267604990    9.7981712124862206
   H    C 
     4     1
Direct
  0.5388566588550139  0.4055699142897213  0.3571177964438433
  0.3892979574309628  0.4808921189498081  0.4382228765718559
  0.5534966436102680  0.5671107869565658  0.4423149832099948
  0.5293675172575603  0.4156270418988123  0.5419274278142758
  0.5034492366373965  0.4675005878885298  0.4448690353314386
 
  0.77295221E-03 -0.54498224E-03 -0.32660611E-02
 -0.45864453E-02 -0.45342290E-03 -0.20734833E-02
  0.31735110E-02  0.70389290E-03  0.41138078E-03
  0.26396585E-02  0.20965230E-03  0.28423647E-02
 -0.16648708E-03  0.70651847E-05  0.17365739E-03
 
           1
  0.500000000000000     
  0.10000000E+01  0.00000000E+00  0.00000000E+00  0.00000000E+00
  0.53889539E+00  0.40554228E+00  0.35695113E+00
  0.38906266E+00  0.48086918E+00  0.43811707E+00
  0.55365924E+00  0.56714621E+00  0.44233598E+00
  0.52950333E+00  0.41563778E+00  0.54207247E+00
  0.50344076E+00  0.46750096E+00  0.44487790E+00
  0.59512815E-04 -0.63718905E-04 -0.21560731E-03
 -0.33635325E-03 -0.99667871E-05 -0.10972978E-03
  0.17427973E-03  0.62698901E-04  0.20574643E-04
  0.14681278E-03 -0.14645053E-04  0.19116712E-03
 -0.36842958E-05  0.21340308E-05  0.94576076E-05
  0.00000000E+00  0.00000000E+00  0.00000000E+00
  0.00000000E+00  0.00000000E+00  0.00000000E+00
  0.00000000E+00  0.00000000E+00  0.00000000E+00
  0.00000000E+00  0.00000000E+00  0.00000000E+00
  0.00000000E+00  0.00000000E+00  0.00000000E+00
