 H  C                                   
   1.00000000000000     
    10.0516404162292083    0.0000000000000000    0.0000000000000000
    -0.2991854958544571   10.2963091069394750    0.0000000000000000
    -0.1880720786130899    0.1322027156349904   10.2758458407280244
   H    C 
     4     1
Direct
  0.5355873640851744  0.4108212431927601  0.3661579802337203
  0.3963569423842048  0.4784169687319079  0.4379414416698987
  0.5518383475636960  0.5611860122221199  0.4429127508776134
  0.5276282097252346  0.4179119168944044  0.5362695985544548
  0.5034651725955321  0.4663589409484376  0.4451997665613706
 
 -0.39570618E-02  0.41850528E-02  0.49372641E-02
  0.18845668E-02 -0.68385357E-02 -0.20989563E-02
  0.39340422E-02 -0.61265610E-02 -0.20193783E-03
  0.68576258E-04  0.13071960E-02 -0.36784041E-02
 -0.16069632E-03  0.62216700E-03  0.86756646E-04
 
           1
  0.500000000000000     
  0.10000000E+01  0.00000000E+00  0.00000000E+00  0.00000000E+00
  0.53540098E+00  0.41102139E+00  0.36639822E+00
  0.39643893E+00  0.47808619E+00  0.43783931E+00
  0.55202500E+00  0.56088863E+00  0.44290293E+00
  0.52763023E+00  0.41797769E+00  0.53609062E+00
  0.50345816E+00  0.46638910E+00  0.44520399E+00
 -0.23204700E-03  0.28282325E-03  0.35633977E-03
  0.11867309E-03 -0.32876140E-03 -0.98464515E-04
  0.14740715E-03 -0.36361227E-03 -0.84333073E-05
 -0.11935981E-04  0.94492039E-04 -0.23035474E-03
 -0.18397519E-05  0.26230820E-04 -0.15891443E-05
  0.00000000E+00  0.00000000E+00  0.00000000E+00
  0.00000000E+00  0.00000000E+00  0.00000000E+00
  0.00000000E+00  0.00000000E+00  0.00000000E+00
  0.00000000E+00  0.00000000E+00  0.00000000E+00
  0.00000000E+00  0.00000000E+00  0.00000000E+00
