 H  C 
 1.0000000000000000
    10.0516404162292083    0.0000000000000000    0.0000000000000000
    -0.2991854958544571   10.2963091069394750    0.0000000000000000
    -0.1880720786130899    0.1322027156349904   10.2758458407280244
 H   C  
   4   1
Cartesian
  5.2215894130686529  4.2352067844260839  3.7056135585647048
  3.7394907819962113  5.0040732004671549  4.5053208603463952
  5.2970516220244921  5.8801012310441667  4.5514526593688238
  5.0824265396342225  4.3594391853834917  5.5411143110840175
  4.8359826762668527  4.8601246207052755  4.5765714814319862
