 H  C 
 1.0000000000000000
    10.2332925412366844    0.0000000000000000    0.0000000000000000
     0.0157388428821105   10.0732879382699334    0.0000000000000000
     0.0709525919670676    0.1583529134410117   10.1121328393111707
 H   C  
   4   1
Cartesian
  5.5385768075417863  4.1563887995861686  3.6469603665815291
  4.0778402317901730  4.9097807818163792  4.4327531805198594
  5.6927050932534105  5.7662622612866228  4.4844239610829026
  5.4458984330055955  4.2745545961543767  5.4588984576978392
  5.1857942943843103  4.7752290596693303  4.4980904275998794
