 H  C 
 1.0000000000000000
     9.7686212013746427    0.0000000000000000    0.0000000000000000
    -0.0172867116894793    9.9441395391845830    0.0000000000000000
    -0.0461728031314096   -0.0136142267604990    9.7981712124862206
 H   C  
   4   1
Cartesian
  5.2298405985782592  4.0439153565341277  3.5279793235901198
  3.8284807568198107  4.7722313608783615  4.3017694904404662
  5.3626240619484289  5.6211227621298407  4.3327924390291432
  5.1266776669424070  4.1348654779801945  5.2835938767889914
  4.8879485463536287  4.6421036734869157  4.3581140829972700
