 H  C                                   
   1.00000000000000     
    10.2408665504548129    0.0000000000000000    0.0000000000000000
     0.1568256177367819   10.2106103665453674    0.0000000000000000
    -0.1166323285367377    0.1541031496487965    9.8873471718900383
   H    C 
     4     1
Direct
  0.5373893322450444  0.4083794274652564  0.3609631110230919
  0.3988378373040128  0.4802489794836032  0.4375651908100875
  0.5493402790783957  0.5605749871465304  0.4420340997811629
  0.5288014813389358  0.4159873269457412  0.5413723988578588
  0.5034084285183652  0.4676049212527960  0.4447149064543192
 
 -0.73805569E-03  0.34842209E-02 -0.61025868E-03
  0.39677943E-02  0.24108621E-02 -0.16303866E-02
 -0.36964234E-02 -0.43244517E-02 -0.87482032E-03
  0.11330104E-02  0.13942547E-02  0.17700877E-02
 -0.55476287E-04 -0.24684756E-03  0.11201215E-03
 
           1
  0.500000000000000     
  0.10000000E+01  0.00000000E+00  0.00000000E+00  0.00000000E+00
  0.53735033E+00  0.40855051E+00  0.36093225E+00
  0.39902879E+00  0.48036828E+00  0.43748274E+00
  0.54916253E+00  0.56036389E+00  0.44198986E+00
  0.52885679E+00  0.41605425E+00  0.54146191E+00
  0.50340597E+00  0.46759275E+00  0.44472057E+00
 -0.47788462E-04  0.18485806E-03 -0.90107417E-05
  0.26572662E-03  0.10883505E-03 -0.76422709E-04
 -0.23305317E-03 -0.32363655E-03 -0.40776236E-04
  0.65387790E-04  0.43655171E-04  0.13084685E-03
 -0.41855613E-05 -0.11415976E-05 -0.38607632E-06
  0.00000000E+00  0.00000000E+00  0.00000000E+00
  0.00000000E+00  0.00000000E+00  0.00000000E+00
  0.00000000E+00  0.00000000E+00  0.00000000E+00
  0.00000000E+00  0.00000000E+00  0.00000000E+00
  0.00000000E+00  0.00000000E+00  0.00000000E+00
