 H  C 
 1.0000000000000000
    10.2408665504548129    0.0000000000000000    0.0000000000000000
     0.1568256177367819   10.2106103665453674    0.0000000000000000
    -0.1166323285367377    0.1541031496487965    9.8873471718900383
 H   C  
   4   1
Cartesian
  5.5308565713320883  4.2093761937532710  3.5630093786338795
  4.0686629975394162  4.9674439011485116  4.3292426218046165
  5.6943634923703312  5.8463008792310704  4.3720215389474042
  5.4101626186921150  4.3359237435739217  5.3307080840981635
  5.1775951225537806  4.8397577178660383  4.3990177350260380
