H4 C1
1.0
10.000000 0.000000 0.000000
0.000000 10.000000 0.000000
0.000000 0.000000 10.000000
H C
4 1
direct
0.538154 0.406861 0.360573 H
0.394540 0.480321 0.438469 H
0.552092 0.565450 0.442709 H
0.528185 0.416415 0.539183 H
0.503251 0.467255 0.445232 C
