 H  C                                   
   1.00000000000000     
    10.0079186737159862    0.0000000000000000    0.0000000000000000
    -0.0689475572083171    9.8234109748248279    0.0000000000000000
    -0.0817322483865777    0.2177778013629275    9.9952078523528982
   H    C 
     4     1
Direct
  0.5379935063467145  0.4070949021788322  0.3617156937696385
  0.3946414093392231  0.4801765360614427  0.4378180971146802
  0.5537695930604077  0.5696127908653770  0.4417529659577375
  0.5290267959363705  0.4144863900933523  0.5412637753804806
  0.5035156451986325  0.4671439338262157  0.4449579879569486
 
  0.92602510E-04 -0.94669686E-03  0.11244531E-02
 -0.79609470E-03  0.96469256E-03 -0.10640717E-02
  0.97196838E-04  0.39626950E-02 -0.20898066E-02
  0.70526694E-03 -0.39919643E-02  0.63654187E-03
 -0.82400790E-05  0.93860155E-06  0.11596731E-03
 
           1
  0.500000000000000     
  0.10000000E+01  0.00000000E+00  0.00000000E+00  0.00000000E+00
  0.53799825E+00  0.40704547E+00  0.36177194E+00
  0.39460155E+00  0.48022682E+00  0.43776487E+00
  0.55377500E+00  0.56981680E+00  0.44164843E+00
  0.52906089E+00  0.41428250E+00  0.54129562E+00
  0.50351528E+00  0.46714385E+00  0.44496379E+00
 -0.39084531E-05 -0.35542581E-04  0.74396228E-04
 -0.50866245E-04  0.49885640E-04 -0.53581921E-04
  0.46862474E-04  0.28568304E-03 -0.10611258E-03
  0.46044099E-04 -0.22858059E-03  0.79995898E-04
 -0.31747461E-05 -0.59483400E-05  0.44145997E-06
  0.00000000E+00  0.00000000E+00  0.00000000E+00
  0.00000000E+00  0.00000000E+00  0.00000000E+00
  0.00000000E+00  0.00000000E+00  0.00000000E+00
  0.00000000E+00  0.00000000E+00  0.00000000E+00
  0.00000000E+00  0.00000000E+00  0.00000000E+00
