 H  C 
 1.0000000000000000
    10.0079186737159862    0.0000000000000000    0.0000000000000000
    -0.0689475572083171    9.8234109748248279    0.0000000000000000
    -0.0817322483865777    0.2177778013629275    9.9952078523528982
 H   C  
   4   1
Cartesian
  5.3298203116175618  4.0751974925448700  3.6047783905440571
  3.8870344360585771  4.8095668524408470  4.3795189807121160
  5.4498064340912604  5.6470591575125688  4.4225359340067785
  5.2148910667990247  4.2110607366873474  5.3891189593670603
  4.9717335466978918  4.6882265037381829  4.4491968726931326
