 H  C                                   
   1.00000000000000     
    10.1785761270974184    0.0000000000000000    0.0000000000000000
     0.1178281122990178   10.0898560495437373    0.0000000000000000
     0.2060917341755417    0.0716358198246718    9.9945987648991803
   H    C 
     4     1
Direct
  0.5386891580022221  0.4077717687254740  0.3603840799508410
  0.3980134719298572  0.4807391476263623  0.4396739607711052
  0.5504633548493899  0.5628756527108474  0.4422594208006929
  0.5277011389325102  0.4161748071799803  0.5389295997383102
  0.5032658163400144  0.4673840813363525  0.4452938938197147
 
  0.56915373E-03  0.11170091E-02  0.19008360E-03
  0.28328159E-02  0.24580146E-04  0.25936267E-02
 -0.24359312E-02 -0.17413150E-02 -0.17390826E-02
 -0.32481215E-02 -0.54192141E-03 -0.46621488E-04
  0.18999942E-03  0.95050137E-04 -0.83091016E-04
 
           1
  0.500000000000000     
  0.10000000E+01  0.00000000E+00  0.00000000E+00  0.00000000E+00
  0.53871628E+00  0.40782705E+00  0.36039359E+00
  0.39815000E+00  0.48073944E+00  0.43980371E+00
  0.55034645E+00  0.56278998E+00  0.44217242E+00
  0.52754194E+00  0.41614797E+00  0.53892727E+00
  0.50327518E+00  0.46738882E+00  0.44528974E+00
  0.25677713E-04  0.57203404E-04  0.11657888E-04
  0.20007228E-03 -0.70727390E-05  0.13089881E-03
 -0.14351726E-03 -0.14105880E-03 -0.84145765E-04
 -0.15631987E-03 -0.26128224E-04 -0.13613393E-05
  0.61682744E-05  0.97457631E-05 -0.47497792E-05
  0.00000000E+00  0.00000000E+00  0.00000000E+00
  0.00000000E+00  0.00000000E+00  0.00000000E+00
  0.00000000E+00  0.00000000E+00  0.00000000E+00
  0.00000000E+00  0.00000000E+00  0.00000000E+00
  0.00000000E+00  0.00000000E+00  0.00000000E+00
