 H  C                                   
   1.00000000000000     
    10.2627870873752318    0.0000000000000000    0.0000000000000000
    -0.1738455236867499   10.1885461292252444    0.0000000000000000
     0.2983620933653799    0.1056649777374146   10.2213175411131054
   H    C 
     4     1
Direct
  0.5375889853118899  0.4104800697273008  0.3640054162182427
  0.4012654748028264  0.4787580990139690  0.4400258028999022
  0.5511829113229916  0.5629156663000375  0.4422869605698074
  0.5263146309882851  0.4176552196971982  0.5355405368177737
  0.5035575748194231  0.4671986883412042  0.4455976125022352
 
  0.13251284E-02  0.36194933E-02  0.44737304E-02
  0.66484362E-02 -0.21696343E-02  0.60655871E-02
 -0.68402291E-03 -0.37090505E-02 -0.14307927E-02
 -0.54608246E-02  0.11717131E-02 -0.33334029E-02
 -0.15225352E-03  0.90540202E-04 -0.48081940E-03
 
           1
  0.500000000000000     
  0.10000000E+01  0.00000000E+00  0.00000000E+00  0.00000000E+00
  0.53765015E+00  0.41065543E+00  0.36422426E+00
  0.40157890E+00  0.47864855E+00  0.44032252E+00
  0.55114855E+00  0.56273437E+00  0.44221697E+00
  0.52605432E+00  0.41771441E+00  0.53537748E+00
  0.50355092E+00  0.46720338E+00  0.44557409E+00
  0.25650335E-04  0.22831945E-03  0.29423140E-03
  0.46113200E-03 -0.12511616E-03  0.29890754E-03
 -0.61128963E-04 -0.23103745E-03 -0.68444748E-04
 -0.27378764E-03  0.94269639E-04 -0.22738370E-03
 -0.12643887E-04  0.27944817E-05 -0.24753183E-04
  0.00000000E+00  0.00000000E+00  0.00000000E+00
  0.00000000E+00  0.00000000E+00  0.00000000E+00
  0.00000000E+00  0.00000000E+00  0.00000000E+00
  0.00000000E+00  0.00000000E+00  0.00000000E+00
  0.00000000E+00  0.00000000E+00  0.00000000E+00
