 H  C 
 1.0000000000000000
    10.2627870873752318    0.0000000000000000    0.0000000000000000
    -0.1738455236867499   10.1885461292252444    0.0000000000000000
     0.2983620933653799    0.1056649777374146   10.2213175411131054
 H   C  
   4   1
Cartesian
  5.5628953319653469  4.1900117145741467  3.6793152937736724
  4.0927290062793968  4.9365367336156574  4.4782130116993688
  5.7025001639595221  5.8116919735852601  4.5244821914546707
  5.5112467045236073  4.2956794247159831  5.5078155172566419
  5.2221809811261055  4.8075754033721898  4.5565194070110548
