 H  C 
 1.0000000000000000
     9.9876004297253402    0.0000000000000000    0.0000000000000000
     0.1953160614220962   10.0818764144347863    0.0000000000000000
    -0.1134144981898158   -0.2447280073075527   10.0739554805424376
 H   C  
   4   1
Cartesian
  5.4144117724636747  4.0080369847029367  3.6268386823041121
  3.9837649082171720  4.7342713142087876  4.4182461454878368
  5.5764324511711143  5.5965984955438310  4.4621957989041938
  5.2923247747391917  4.0621899042119960  5.4301776635133825
  5.0663483081308174  4.6012214076886950  4.4847751908582856
