 H  C 
 1.0000000000000000
     9.7034093436563786    0.0000000000000000    0.0000000000000000
     0.0213770352494113   10.2647894298314899    0.0000000000000000
    -0.0178999400007382   -0.0526122366732251    9.9745631185653103
 H   C  
   4   1
Cartesian
  5.2253129842199186  4.1560483033857771  3.5961035699484225
  3.8283777465079138  4.9005794233701812  4.3754156176041903
  5.3632906013439827  5.7790439458850127  4.4130952476730236
  5.1192046926803947  4.2438081512376842  5.3770814471766553
  4.8847247659973698  4.7722510618153873  4.4402203717377233
