 H  C                                   
   1.00000000000000     
    10.2714960859413402    0.0000000000000000    0.0000000000000000
    -0.0527190557880029    9.7703139767603417    0.0000000000000000
    -0.0695629515756680    0.2010164847261474   10.2907087011159728
   H    C 
     4     1
Direct
  0.5359915041416076  0.4078049920504404  0.3653869570003911
  0.3993544412209725  0.4799797430457565  0.4387180986987975
  0.5515885996388985  0.5678133564160833  0.4420413238659819
  0.5274195826772826  0.4155390573316091  0.5368463448262062
  0.5025218265496169  0.4666850758249249  0.4452894101653996
 
 -0.36745649E-02 -0.38101328E-02  0.72377602E-02
  0.54796168E-02  0.17478902E-02 -0.10711840E-02
 -0.63404370E-02  0.39837838E-02 -0.12376449E-02
 -0.12925924E-02 -0.62142621E-02 -0.55385649E-02
  0.48522000E-03  0.35739912E-03  0.50756271E-04
 
           1
  0.500000000000000     
  0.10000000E+01  0.00000000E+00  0.00000000E+00  0.00000000E+00
  0.53581398E+00  0.40760277E+00  0.36573862E+00
  0.39962129E+00  0.48007026E+00  0.43866605E+00
  0.55128060E+00  0.56801847E+00  0.44198119E+00
  0.52735324E+00  0.41522658E+00  0.53657724E+00
  0.50254556E+00  0.46670332E+00  0.44529188E+00
 -0.20749917E-03 -0.14111555E-03  0.42450274E-03
  0.37438130E-03  0.74496317E-04 -0.44553810E-04
 -0.28801488E-03  0.23236738E-03 -0.60635463E-04
 -0.74201604E-04 -0.28912692E-03 -0.29870417E-03
  0.16262955E-04  0.10272148E-04 -0.17158681E-05
  0.00000000E+00  0.00000000E+00  0.00000000E+00
  0.00000000E+00  0.00000000E+00  0.00000000E+00
  0.00000000E+00  0.00000000E+00  0.00000000E+00
  0.00000000E+00  0.00000000E+00  0.00000000E+00
  0.00000000E+00  0.00000000E+00  0.00000000E+00
