 H  C                                   
   1.00000000000000     
    10.1545030587003637    0.0000000000000000    0.0000000000000000
     0.1968288216608930   10.0909811562999927    0.0000000000000000
    -0.2846758370029758    0.0303185142893556    9.9624153400275706
   H    C 
     4     1
Direct
  0.5367871235901602  0.4073949767352899  0.3613918766510036
  0.3974786884725822  0.4806125715681104  0.4374254508914800
  0.5500502203697236  0.5623989815221264  0.4433310805742761
  0.5295345889933154  0.4156031734053106  0.5405514558453473
  0.5032172934423278  0.4675339380492755  0.4450252527738992
 
 -0.17807420E-02  0.10605631E-02  0.22269633E-03
  0.38175618E-02  0.40935816E-02 -0.37596445E-02
 -0.42135817E-02 -0.17764563E-02  0.14302041E-02
  0.39943805E-02  0.13779650E-02  0.11660094E-02
 -0.15132950E-03 -0.39594151E-03  0.78322760E-04
 
           1
  0.500000000000000     
  0.10000000E+01  0.00000000E+00  0.00000000E+00  0.00000000E+00
  0.53669874E+00  0.40744749E+00  0.36140305E+00
  0.39765743E+00  0.48081597E+00  0.43723676E+00
  0.54984647E+00  0.56231074E+00  0.44340286E+00
  0.52973159E+00  0.41567127E+00  0.54060998E+00
  0.50321033E+00  0.46751431E+00  0.44502918E+00
 -0.95805418E-04  0.66011413E-04  0.30296507E-04
  0.24682809E-03  0.19133880E-03 -0.18117553E-03
 -0.23605595E-03 -0.15713153E-03  0.71328526E-04
  0.20365056E-03  0.46319336E-04  0.95186860E-04
 -0.98757208E-05 -0.12200318E-04 -0.13018365E-05
  0.00000000E+00  0.00000000E+00  0.00000000E+00
  0.00000000E+00  0.00000000E+00  0.00000000E+00
  0.00000000E+00  0.00000000E+00  0.00000000E+00
  0.00000000E+00  0.00000000E+00  0.00000000E+00
  0.00000000E+00  0.00000000E+00  0.00000000E+00
