 H  C 
 1.0000000000000000
     9.9008494401833111    0.0000000000000000    0.0000000000000000
    -0.1013882125212249   10.1952499253377642    0.0000000000000000
    -0.2346166981878857    0.0583153629236234    9.8840167860188899
 H   C  
   4   1
Cartesian
  5.2035051310055751  4.1671928339383228  3.5654696100053025
  3.7577702631433776  4.9209407719353617  4.3310726445772501
  5.3051485013181594  5.7898827036036380  4.3748096150727598
  5.0534479636235030  4.2827573055422032  5.3295847358843442
  4.8317862334789936  4.7897108103358299  4.4017480809979084
