 H  C                                   
   1.00000000000000     
    10.0542142421851697    0.0000000000000000    0.0000000000000000
    -0.2908195221837687   10.2908437525512841    0.0000000000000000
     0.2593530600063223    0.1437888978838657    9.9023582064393736
   H    C 
     4     1
Direct
  0.5377373639663112  0.4094027828086851  0.3604065433820846
  0.3958884134001189  0.4786859678725348  0.4396749650483400
  0.5524184866986909  0.5624895187834743  0.4414344244910584
  0.5267157539987395  0.4172839694184733  0.5401431979997753
  0.5032475439769782  0.4673216948875652  0.4451993627936216
 
  0.11964219E-02  0.60285652E-02 -0.24707111E-02
  0.35421883E-03 -0.43006562E-02  0.39841509E-02
  0.36343183E-02 -0.41203849E-02 -0.31854471E-02
 -0.50387433E-02  0.22791652E-02  0.27472119E-02
 -0.12173485E-04  0.94339218E-05 -0.89518328E-04
 
           1
  0.500000000000000     
  0.10000000E+01  0.00000000E+00  0.00000000E+00  0.00000000E+00
  0.53780860E+00  0.40969744E+00  0.36028179E+00
  0.39589471E+00  0.47847420E+00  0.43987614E+00
  0.55259765E+00  0.56229157E+00  0.44127358E+00
  0.52646474E+00  0.41739277E+00  0.54028191E+00
  0.50324707E+00  0.46732222E+00  0.44519484E+00
  0.63014465E-04  0.30242320E-03 -0.10596992E-03
  0.27670525E-04 -0.21026007E-03  0.19843412E-03
  0.15309895E-03 -0.23948851E-03 -0.15708185E-03
 -0.24418209E-03  0.10158448E-03  0.14740511E-03
  0.33148384E-07  0.38082506E-05 -0.68926365E-05
  0.00000000E+00  0.00000000E+00  0.00000000E+00
  0.00000000E+00  0.00000000E+00  0.00000000E+00
  0.00000000E+00  0.00000000E+00  0.00000000E+00
  0.00000000E+00  0.00000000E+00  0.00000000E+00
  0.00000000E+00  0.00000000E+00  0.00000000E+00
