 H  C 
 1.0000000000000000
    10.0542142421851697    0.0000000000000000    0.0000000000000000
    -0.2908195221837687   10.2908437525512841    0.0000000000000000
     0.2593530600063223    0.1437888978838657    9.9023582064393736
 H   C  
   4   1
Cartesian
  5.3802401002298614  4.2433534661478207  3.5695257248379177
  3.9460235376178998  5.0019336039160827  4.3426033654883573
  5.5031791961451715  5.8805360697462215  4.3796318564036358
  5.3270543114657647  4.3677762617760063  5.3367721977104852
  5.0392405082217904  4.8718556102424007  4.4096969690156982
