 H  C                                   
   1.00000000000000     
    10.1868960497004402    0.0000000000000000    0.0000000000000000
     0.1914426637364506   10.1660522014819072    0.0000000000000000
    -0.2719757199695298   -0.2780056789273053    9.8804844536831453
   H    C 
     4     1
Direct
  0.5376281295010009  0.4059250997828263  0.3593135606216262
  0.3968873313920236  0.4804134167924635  0.4373145478082977
  0.5487238148748831  0.5602810433673404  0.4444470567512021
  0.5291058487245026  0.4177539283155408  0.5404047232179575
  0.5029414421669016  0.4670510369289547  0.4456610664656565
 
 -0.50832288E-02 -0.29340718E-02 -0.69824981E-03
  0.21414129E-02 -0.12205610E-02 -0.29384332E-02
 -0.32678804E-02 -0.40923244E-02  0.66032867E-02
  0.22015244E-02  0.34895179E-02  0.66615301E-03
  0.33370842E-03  0.39609019E-03 -0.30245248E-03
 
           1
  0.500000000000000     
  0.10000000E+01  0.00000000E+00  0.00000000E+00  0.00000000E+00
  0.53738042E+00  0.40577983E+00  0.35927823E+00
  0.39698967E+00  0.48034932E+00  0.43716585E+00
  0.54857595E+00  0.56008891E+00  0.44478121E+00
  0.52921156E+00  0.41792648E+00  0.54043843E+00
  0.50295705E+00  0.46707010E+00  0.44564576E+00
 -0.23518486E-03 -0.15390344E-03 -0.54486750E-04
  0.13894378E-03 -0.65086818E-04 -0.14404952E-03
 -0.20629329E-03 -0.31202955E-03  0.32980274E-03
  0.10717920E-03  0.16826276E-03  0.40526112E-04
  0.16264688E-04  0.30202069E-04 -0.14302938E-04
  0.00000000E+00  0.00000000E+00  0.00000000E+00
  0.00000000E+00  0.00000000E+00  0.00000000E+00
  0.00000000E+00  0.00000000E+00  0.00000000E+00
  0.00000000E+00  0.00000000E+00  0.00000000E+00
  0.00000000E+00  0.00000000E+00  0.00000000E+00
