 H  C                                   
   1.00000000000000     
    10.2332925412366844    0.0000000000000000    0.0000000000000000
     0.0157388428821105   10.0732879382699334    0.0000000000000000
     0.0709525919670676    0.1583529134410117   10.1121328393111707
   H    C 
     4     1
Direct
  0.5373677977344467  0.4084574208766348  0.3625535629848834
  0.3985794930757040  0.4802526275772575  0.4385911767592445
  0.5505462086356783  0.5630732934058101  0.4425395142951745
  0.5265843506722745  0.4165395266609435  0.5369933620598618
  0.5029443549180069  0.4670940706161322  0.4449577071254673
 
 -0.68124991E-03  0.20611286E-02  0.19791815E-02
  0.39533507E-02  0.29196273E-03  0.84749053E-04
 -0.31630686E-02 -0.17446544E-02 -0.37035906E-02
 -0.26478584E-02 -0.14885762E-02 -0.34280536E-02
  0.21137509E-03  0.73277774E-04  0.42192271E-03
 
           1
  0.500000000000000     
  0.10000000E+01  0.00000000E+00  0.00000000E+00  0.00000000E+00
  0.53733368E+00  0.40855819E+00  0.36265142E+00
  0.39877260E+00  0.48026705E+00  0.43859537E+00
  0.55039306E+00  0.56298957E+00  0.44235639E+00
  0.52645626E+00  0.41646830E+00  0.53682386E+00
  0.50295453E+00  0.46709738E+00  0.44497857E+00
 -0.48400015E-04  0.12517803E-03  0.13360763E-03
  0.26687495E-03  0.48070349E-05  0.10000873E-04
 -0.17664494E-03 -0.13492473E-03 -0.17775077E-03
 -0.13954771E-03 -0.40542411E-04 -0.21896730E-03
  0.81356851E-05  0.37867019E-05  0.21073147E-04
  0.00000000E+00  0.00000000E+00  0.00000000E+00
  0.00000000E+00  0.00000000E+00  0.00000000E+00
  0.00000000E+00  0.00000000E+00  0.00000000E+00
  0.00000000E+00  0.00000000E+00  0.00000000E+00
  0.00000000E+00  0.00000000E+00  0.00000000E+00
