 H  C                                   
   1.00000000000000     
    10.1084009849117198    0.0000000000000000    0.0000000000000000
     0.1192106614413102    9.9159088738467833    0.0000000000000000
    -0.2388197749687004   -0.1023511856694807   10.1827470614905629
   H    C 
     4     1
Direct
  0.5370946947524587  0.4064405539852307  0.3628675240069720
  0.3963172782267089  0.4811002221415384  0.4375971199993989
  0.5512768424487415  0.5654457522372567  0.4435100046000931
  0.5285535827072460  0.4172450415654479  0.5372070447064531
  0.5032319028912268  0.4672556743913393  0.4452548082152677
 
 -0.27003481E-02 -0.41906300E-02  0.42642976E-02
  0.22694111E-02  0.26970703E-02 -0.37561410E-02
 -0.40981477E-02  0.12028172E-02  0.28244747E-02
  0.41671964E-02 -0.16808884E-02 -0.39635163E-02
  0.30129738E-04  0.16415210E-03  0.52525606E-04
 
           1
  0.500000000000000     
  0.10000000E+01  0.00000000E+00  0.00000000E+00  0.00000000E+00
  0.53696854E+00  0.40623141E+00  0.36307691E+00
  0.39642359E+00  0.48123432E+00  0.43741268E+00
  0.55107668E+00  0.56550783E+00  0.44364869E+00
  0.52875613E+00  0.41715828E+00  0.53701243E+00
  0.50323336E+00  0.46726398E+00  0.44525739E+00
 -0.13603061E-03 -0.18460573E-03  0.23492056E-03
  0.13777023E-03  0.12785176E-03 -0.17915301E-03
 -0.20328662E-03  0.48446237E-04  0.13696190E-03
  0.19090949E-03 -0.68340434E-04 -0.22245475E-03
  0.88564707E-06  0.63814973E-05  0.24748399E-05
  0.00000000E+00  0.00000000E+00  0.00000000E+00
  0.00000000E+00  0.00000000E+00  0.00000000E+00
  0.00000000E+00  0.00000000E+00  0.00000000E+00
  0.00000000E+00  0.00000000E+00  0.00000000E+00
  0.00000000E+00  0.00000000E+00  0.00000000E+00
