 H  C 
 1.0000000000000000
    10.1084009849117198    0.0000000000000000    0.0000000000000000
     0.1192106614413102    9.9159088738467833    0.0000000000000000
    -0.2388197749687004   -0.1023511856694807   10.1827470614905629
 H   C  
   4   1
Cartesian
  5.4031023008072623  3.9970292120396396  3.6721948545668472
  3.9402348688977673  4.7198581956676033  4.4654843143143239
  5.5477409172897447  5.5628131490693900  4.5081610598693604
  5.2555513784582608  4.0806666034647447  5.4929813124359121
  5.0363694542955679  4.5878898662626568  4.5337922970601046
