 H  C                                   
   1.00000000000000     
     9.7192446952740514    0.0000000000000000    0.0000000000000000
     0.1045081736569694   10.2049635633611544    0.0000000000000000
    -0.2176338731266887   -0.2097554413208116    9.6998477926787956
   H    C 
     4     1
Direct
  0.5388753940593360  0.4052090863979612  0.3564489128530851
  0.3879576428891579  0.4809098079991685  0.4372646161908187
  0.5522443499919173  0.5623876465027093  0.4433925170849582
  0.5302588898150152  0.4169092879099229  0.5436538469682856
  0.5035913504180137  0.4675863474695889  0.4452243325304236
 
 -0.51527212E-03  0.39417939E-03 -0.53653082E-02
 -0.52284135E-02 -0.14118457E-04 -0.38661388E-02
  0.34645887E-02 -0.27304144E-02  0.48643013E-02
  0.55631425E-02  0.48821091E-02  0.57942244E-02
 -0.27341983E-03 -0.21078641E-03 -0.11881431E-03
 
           1
  0.500000000000000     
  0.10000000E+01  0.00000000E+00  0.00000000E+00  0.00000000E+00
  0.53884255E+00  0.40522271E+00  0.35617235E+00
  0.38768426E+00  0.48090502E+00  0.43706533E+00
  0.55242958E+00  0.56225902E+00  0.44364326E+00
  0.53054913E+00  0.41715463E+00  0.54395252E+00
  0.50357726E+00  0.46757589E+00  0.44521821E+00
 -0.63711487E-05 -0.30307590E-04 -0.33621458E-03
 -0.39728594E-03  0.11062795E-04 -0.20544295E-03
  0.15648771E-03 -0.17743932E-03  0.24738676E-03
  0.30747109E-03  0.20234160E-03  0.37152041E-03
 -0.50205398E-05 -0.47102507E-06 -0.64315744E-05
  0.00000000E+00  0.00000000E+00  0.00000000E+00
  0.00000000E+00  0.00000000E+00  0.00000000E+00
  0.00000000E+00  0.00000000E+00  0.00000000E+00
  0.00000000E+00  0.00000000E+00  0.00000000E+00
  0.00000000E+00  0.00000000E+00  0.00000000E+00
