 H  C 
 1.0000000000000000
    10.2024304062015236    0.0000000000000000    0.0000000000000000
     0.0050351653708740   10.1899083768939107    0.0000000000000000
    -0.1719136974271469   -0.1219878211024770   10.2734306849908474
 H   C  
   4   1
Cartesian
  5.4290926046501067  4.1003279947388842  3.7065926829827358
  3.9535975963782346  4.8405434773916509  4.5042057719454052
  5.5647335113425251  5.7042175657521028  4.5476236354744204
  5.2943708207228628  4.1780770163214909  5.5417598282909903
  5.0538857716785781  4.7138236321058651  4.5710015279301004
