 H  C 
 1.0000000000000000
     9.9090191545699113    0.0000000000000000    0.0000000000000000
    -0.0588908729988038    9.8253177404470673    0.0000000000000000
    -0.0945275583272163    0.1972679948288731    9.7976708726460338
 H   C  
   4   1
Cartesian
  5.2737136132751381  4.0663232914682155  3.5331434913485822
  3.8372820210605187  4.7998963543782551  4.3004997512026524
  5.3954600795096868  5.6434117977135791  4.3375268300076337
  5.1583497638447140  4.1977521705031799  5.2826620067478389
  4.9215957236247574  4.6832569574096361  4.3692392279342327
