 H  C 
 1.0000000000000000
    10.2533830576879001    0.0000000000000000    0.0000000000000000
    -0.1361752086172637    9.9565966905644991    0.0000000000000000
     0.0661282242603108    0.1861296052545111    9.7243362600656003
 H   C  
   4   1
Cartesian
  5.4800784304119174  4.1227409002129205  3.5035610383604028
  4.0060142685424251  4.8675117967212937  4.2656821437343524
  5.6179919603326089  5.7124792448758610  4.3026200340019018
  5.3968471888774507  4.2416811055131713  5.2393602081733261
  5.1279821855720442  4.7340749147105230  4.3297249365260253
