 H  C 
 1.0000000000000000
    10.1391934429084394    0.0000000000000000    0.0000000000000000
    -0.0557657558147619    9.8476603586190716    0.0000000000000000
     0.0507215633380516   -0.2672690644988246   10.2119103421598929
 H   C  
   4   1
Cartesian
  5.4480822906563651  3.9135556061805112  3.6904465688190968
  3.9943339548098864  4.6108415516788455  4.4775349936295772
  5.5912234513223353  5.4513329945503077  4.5199220640651401
  5.3535855691389713  3.9545876096583803  5.5044510577547996
  5.1051281622413702  4.4821892012642968  4.5490809093429494
