 H  C                                   
   1.00000000000000     
    10.2661490638462922    0.0000000000000000    0.0000000000000000
    -0.0504970089616347   10.2383427524380632    0.0000000000000000
     0.2489047643045532    0.2584710534754751   10.0531999592940871
   H    C 
     4     1
Direct
  0.5374653162859727  0.4097751117892721  0.3632436108138625
  0.3998421839400910  0.4794412061931117  0.4396783496901028
  0.5503323658252781  0.5612673811942227  0.4415531443093011
  0.5266522420320016  0.4165112966161086  0.5390761874432897
  0.5030378530032620  0.4669631687638134  0.4452243042356759
 
  0.50392984E-03  0.54421421E-02  0.15842132E-02
  0.47635292E-02 -0.22847328E-02  0.39826199E-02
 -0.14445870E-02 -0.37707214E-02 -0.57067180E-02
 -0.62314002E-02 -0.16657841E-02 -0.40776095E-03
  0.20052686E-03  0.18975075E-03  0.45595356E-04
 
           1
  0.500000000000000     
  0.10000000E+01  0.00000000E+00  0.00000000E+00  0.00000000E+00
  0.53748925E+00  0.41003890E+00  0.36332240E+00
  0.40006881E+00  0.47932463E+00  0.43987643E+00
  0.55026802E+00  0.56109040E+00  0.44126932E+00
  0.52634884E+00  0.41643046E+00  0.53905591E+00
  0.50304761E+00  0.46697238E+00  0.44522657E+00
 -0.36363413E-05  0.30567194E-03  0.14149564E-03
  0.33383720E-03 -0.12713111E-03  0.20011301E-03
 -0.99748013E-04 -0.24580914E-03 -0.27726876E-03
 -0.29855915E-03 -0.78702650E-04 -0.20624218E-04
  0.56703275E-05  0.12153105E-04 -0.36396370E-05
  0.00000000E+00  0.00000000E+00  0.00000000E+00
  0.00000000E+00  0.00000000E+00  0.00000000E+00
  0.00000000E+00  0.00000000E+00  0.00000000E+00
  0.00000000E+00  0.00000000E+00  0.00000000E+00
  0.00000000E+00  0.00000000E+00  0.00000000E+00
