 H  C 
 1.0000000000000000
    10.2661490638462922    0.0000000000000000    0.0000000000000000
    -0.0504970089616347   10.2383427524380632    0.0000000000000000
     0.2489047643045532    0.2584710534754751   10.0531999592940871
 H   C  
   4   1
Cartesian
  5.5957296382766000  4.2564627344251864  3.6240846502611253
  4.1359198693710457  5.0332255345335160  4.4072285201323300
  5.7488182339153866  5.8975953466689948  4.4541738401459634
  5.5369291329652350  4.4082779675758639  5.4203641527849857
  5.2524391727938031  4.8943721912177693  4.4779726351297446
