 H  C                                   
   1.00000000000000     
     9.9008494401833111    0.0000000000000000    0.0000000000000000
    -0.1013882125212249   10.1952499253377642    0.0000000000000000
    -0.2346166981878857    0.0583153629236234    9.8840167860188899
   H    C 
     4     1
Direct
  0.5372818040656543  0.4083360355005261  0.3613929963416287
  0.3923659368953023  0.4798325495729759  0.4369910671867348
  0.5524052333671892  0.5632672991326253  0.4429475106280759
  0.5289770967681783  0.4165154993329760  0.5422659161243499
  0.5034920579520399  0.4673546833914320  0.4451027096464739
 
 -0.19422965E-02  0.30783857E-02 -0.15551111E-02
 -0.19290954E-02 -0.20983960E-02 -0.36496892E-02
  0.33817203E-02 -0.29389539E-02  0.12048504E-02
  0.32148755E-02  0.24778768E-02  0.31574093E-02
 -0.22689234E-03 -0.43203118E-04  0.70147415E-04
 
           1
  0.500000000000000     
  0.10000000E+01  0.00000000E+00  0.00000000E+00  0.00000000E+00
  0.53718340E+00  0.40848746E+00  0.36131433E+00
  0.39226310E+00  0.47973070E+00  0.43680644E+00
  0.55257598E+00  0.56312282E+00  0.44300846E+00
  0.52914447E+00  0.41663611E+00  0.54242564E+00
  0.50348066E+00  0.46735254E+00  0.44510626E+00
 -0.10862308E-03  0.17033189E-03 -0.48654954E-04
 -0.14944682E-03 -0.94515798E-04 -0.18608358E-03
  0.15093662E-03 -0.17600150E-03  0.59920990E-04
  0.17944815E-03  0.90219856E-04  0.21156840E-03
 -0.60207204E-05  0.82970264E-06 -0.30597668E-05
  0.00000000E+00  0.00000000E+00  0.00000000E+00
  0.00000000E+00  0.00000000E+00  0.00000000E+00
  0.00000000E+00  0.00000000E+00  0.00000000E+00
  0.00000000E+00  0.00000000E+00  0.00000000E+00
  0.00000000E+00  0.00000000E+00  0.00000000E+00
