 H  C                                   
   1.00000000000000     
    10.2024304062015236    0.0000000000000000    0.0000000000000000
     0.0050351653708740   10.1899083768939107    0.0000000000000000
    -0.1719136974271469   -0.1219878211024770   10.2734306849908474
   H    C 
     4     1
Direct
  0.5358122368206153  0.4089935955578902  0.3645445009493968
  0.3972816660939480  0.4804472112016377  0.4378274889087510
  0.5505535965563961  0.5624042799965553  0.4433537775473185
  0.5269729218791098  0.4196934256703640  0.5338835229433905
  0.5028345960211986  0.4676758485090403  0.4450760188134543
 
 -0.41816493E-02  0.11946208E-02  0.36270024E-02
  0.36229549E-02  0.15351809E-02 -0.27456919E-02
 -0.39763476E-02 -0.21677093E-02  0.23306777E-02
  0.96255566E-03  0.38221771E-02 -0.52714681E-02
  0.29743455E-03 -0.36502119E-03  0.17146615E-03
 
           1
  0.500000000000000     
  0.10000000E+01  0.00000000E+00  0.00000000E+00  0.00000000E+00
  0.53561025E+00  0.40905433E+00  0.36472102E+00
  0.39745693E+00  0.48052094E+00  0.43769386E+00
  0.55036069E+00  0.56229927E+00  0.44346721E+00
  0.52701568E+00  0.41987790E+00  0.53362696E+00
  0.50284932E+00  0.46765804E+00  0.44508436E+00
 -0.22883548E-03  0.11394871E-03  0.25095521E-03
  0.21776712E-03  0.65763250E-04 -0.12773525E-03
 -0.21706501E-03 -0.16136862E-03  0.11350051E-03
  0.11477141E-04  0.24342765E-03 -0.36906626E-03
  0.18038151E-04 -0.21794271E-04  0.11018716E-04
  0.00000000E+00  0.00000000E+00  0.00000000E+00
  0.00000000E+00  0.00000000E+00  0.00000000E+00
  0.00000000E+00  0.00000000E+00  0.00000000E+00
  0.00000000E+00  0.00000000E+00  0.00000000E+00
  0.00000000E+00  0.00000000E+00  0.00000000E+00
