 H  C 
 1.0000000000000000
    10.1988754905668220    0.0000000000000000    0.0000000000000000
    -0.1533042403466177    9.9985996102522545    0.0000000000000000
    -0.2669691580985993   -0.2019653075397611   10.0745562604143135
 H   C  
   4   1
Cartesian
  5.3257066783477773  4.0010007180265452  3.6326847595026948
  3.8354358605322472  4.7143555283852399  4.4152096971372767
  5.4276825698334132  5.5623553775409684  4.4547643664184049
  5.1772663400151249  4.0564333229352245  5.4341330049794809
  4.9402653262059477  4.5836199179130359  4.4846474348514480
