 H  C                                   
   1.00000000000000     
    10.2494343501984471    0.0000000000000000    0.0000000000000000
     0.0121235226814411    9.7695051597154148    0.0000000000000000
    -0.0189004091102008    0.1236853094165362   10.1894452053503741
   H    C 
     4     1
Direct
  0.5373623742684613  0.4070506447508322  0.3633658993123377
  0.3996422574965677  0.4807624722257114  0.4383445278346969
  0.5521318453652165  0.5687662442633974  0.4421868499049750
  0.5277959667406036  0.4153343303630400  0.5377122649438437
  0.5030023159822833  0.4671802430002321  0.4452307911831740
 
 -0.23997051E-02 -0.30325644E-02  0.38671445E-02
  0.46770418E-02  0.96522603E-03  0.47142669E-03
 -0.38791128E-02  0.39816050E-02 -0.15030420E-05
 -0.16930452E-02 -0.34906468E-02 -0.25777443E-02
  0.27431698E-03  0.13124471E-03 -0.14647605E-03
 
           1
  0.500000000000000     
  0.10000000E+01  0.00000000E+00  0.00000000E+00  0.00000000E+00
  0.53724585E+00  0.40689304E+00  0.36355566E+00
  0.39987040E+00  0.48081158E+00  0.43836766E+00
  0.55194237E+00  0.56897002E+00  0.44218678E+00
  0.52771335E+00  0.41515728E+00  0.53758577E+00
  0.50301568E+00  0.46718705E+00  0.44522360E+00
 -0.13123758E-03 -0.12807810E-03  0.22378317E-03
  0.33699373E-03  0.32863338E-04  0.29532263E-04
 -0.16038962E-03  0.25546194E-03 -0.24459181E-05
 -0.84890009E-04 -0.16889232E-03 -0.13601204E-03
  0.32906069E-05  0.71976901E-06 -0.95626907E-05
  0.00000000E+00  0.00000000E+00  0.00000000E+00
  0.00000000E+00  0.00000000E+00  0.00000000E+00
  0.00000000E+00  0.00000000E+00  0.00000000E+00
  0.00000000E+00  0.00000000E+00  0.00000000E+00
  0.00000000E+00  0.00000000E+00  0.00000000E+00
