 H  C                                   
   1.00000000000000     
     9.9920564926278370    0.0000000000000000    0.0000000000000000
    -0.2159346037444984   10.2014137980240669    0.0000000000000000
     0.1592047532086768    0.0700761303304075   10.1579514828675652
   H    C 
     4     1
Direct
  0.5372868772421382  0.4095245171082687  0.3629708176111681
  0.3951407689234955  0.4791024131175408  0.4396561209396126
  0.5524897181089752  0.5635073094974491  0.4422290716511464
  0.5270511929472115  0.4180213406010803  0.5357172685717615
  0.5033528977884276  0.4670687421869918  0.4452783732951394
 
  0.10378688E-03  0.47597166E-02  0.10566882E-02
  0.86329770E-03 -0.40194082E-02  0.24285453E-02
  0.31457637E-02 -0.35878716E-02 -0.18317461E-02
 -0.37575082E-02  0.27657377E-02 -0.20996131E-02
 -0.29584555E-04  0.68125471E-05  0.37143094E-04
 
           1
  0.500000000000000     
  0.10000000E+01  0.00000000E+00  0.00000000E+00  0.00000000E+00
  0.53729628E+00  0.40975745E+00  0.36302283E+00
  0.39517779E+00  0.47890459E+00  0.43977566E+00
  0.55264478E+00  0.56333208E+00  0.44213891E+00
  0.52686776E+00  0.41815761E+00  0.53561392E+00
  0.50335140E+00  0.46706906E+00  0.44528020E+00
 -0.13978832E-04  0.26862749E-03  0.10860356E-03
  0.53770313E-04 -0.19725047E-03  0.11875022E-03
  0.14042621E-03 -0.19786594E-03 -0.87683530E-04
 -0.20054052E-03  0.17568679E-03 -0.17919083E-03
  0.16920175E-05 -0.40960671E-05  0.32903653E-05
  0.00000000E+00  0.00000000E+00  0.00000000E+00
  0.00000000E+00  0.00000000E+00  0.00000000E+00
  0.00000000E+00  0.00000000E+00  0.00000000E+00
  0.00000000E+00  0.00000000E+00  0.00000000E+00
  0.00000000E+00  0.00000000E+00  0.00000000E+00
